p edge 1660 1560
e 1 2
e 1 3
e 1 4
e 1 5
e 1 6
e 1 7
e 1 8
e 1 9
e 1 10
e 1 11
e 1 12
e 1 13
e 1 14
e 1 15
e 1 16
e 1 17
e 1 18
e 1 19
e 20 21
e 20 22
e 20 23
e 20 24
e 20 25
e 20 26
e 20 27
e 20 28
e 20 29
e 20 30
e 20 31
e 20 32
e 20 33
e 20 34
e 20 35
e 20 36
e 20 37
e 38 39
e 38 40
e 38 41
e 38 42
e 38 43
e 38 44
e 38 45
e 38 46
e 38 47
e 38 48
e 38 49
e 38 50
e 38 51
e 38 52
e 38 53
e 38 54
e 38 55
e 38 56
e 38 57
e 38 58
e 59 60
e 59 61
e 59 62
e 59 63
e 59 64
e 59 65
e 59 66
e 59 67
e 59 68
e 59 69
e 59 70
e 59 71
e 59 72
e 59 73
e 59 74
e 59 75
e 76 77
e 76 78
e 76 79
e 76 80
e 76 81
e 76 82
e 76 83
e 76 84
e 76 85
e 76 86
e 76 87
e 88 89
e 88 90
e 88 91
e 88 92
e 88 93
e 88 94
e 88 95
e 88 96
e 88 97
e 88 98
e 88 99
e 100 101
e 100 102
e 100 103
e 100 104
e 100 105
e 100 106
e 100 107
e 100 108
e 100 109
e 100 110
e 100 111
e 100 112
e 100 113
e 100 114
e 100 115
e 100 116
e 117 118
e 117 119
e 117 120
e 117 121
e 117 122
e 117 123
e 117 124
e 117 125
e 117 126
e 117 127
e 117 128
e 117 129
e 117 130
e 117 131
e 132 133
e 132 134
e 132 135
e 132 136
e 132 137
e 132 138
e 132 139
e 132 140
e 132 141
e 132 142
e 132 143
e 132 144
e 132 145
e 132 146
e 132 147
e 132 148
e 132 149
e 132 150
e 132 151
e 152 153
e 152 154
e 152 155
e 152 156
e 152 157
e 152 158
e 152 159
e 152 160
e 152 161
e 152 162
e 152 163
e 152 164
e 152 165
e 152 166
e 152 167
e 152 168
e 152 169
e 170 171
e 170 172
e 170 173
e 170 174
e 170 175
e 170 176
e 170 177
e 170 178
e 170 179
e 170 180
e 170 181
e 170 182
e 170 183
e 170 184
e 170 185
e 170 186
e 170 187
e 188 189
e 188 190
e 188 191
e 188 192
e 188 193
e 188 194
e 188 195
e 188 196
e 188 197
e 188 198
e 188 199
e 188 200
e 188 201
e 188 202
e 188 203
e 188 204
e 188 205
e 206 207
e 206 208
e 206 209
e 206 210
e 206 211
e 206 212
e 206 213
e 206 214
e 206 215
e 206 216
e 206 217
e 206 218
e 206 219
e 206 220
e 206 221
e 206 222
e 206 223
e 224 225
e 224 226
e 224 227
e 224 228
e 224 229
e 224 230
e 224 231
e 224 232
e 224 233
e 224 234
e 235 236
e 235 237
e 235 238
e 235 239
e 235 240
e 235 241
e 235 242
e 235 243
e 235 244
e 235 245
e 235 246
e 235 247
e 235 248
e 235 249
e 235 250
e 235 251
e 235 252
e 235 253
e 235 254
e 235 255
e 256 257
e 256 258
e 256 259
e 256 260
e 256 261
e 256 262
e 256 263
e 256 264
e 256 265
e 256 266
e 256 267
e 256 268
e 269 270
e 269 271
e 269 272
e 269 273
e 269 274
e 269 275
e 269 276
e 269 277
e 269 278
e 269 279
e 269 280
e 269 281
e 269 282
e 269 283
e 269 284
e 285 286
e 285 287
e 285 288
e 285 289
e 285 290
e 285 291
e 285 292
e 285 293
e 285 294
e 285 295
e 285 296
e 285 297
e 285 298
e 299 300
e 299 301
e 299 302
e 299 303
e 299 304
e 299 305
e 299 306
e 299 307
e 299 308
e 299 309
e 299 310
e 299 311
e 299 312
e 299 313
e 314 315
e 314 316
e 314 317
e 314 318
e 314 319
e 314 320
e 314 321
e 314 322
e 314 323
e 314 324
e 314 325
e 314 326
e 314 327
e 314 328
e 314 329
e 330 331
e 330 332
e 330 333
e 330 334
e 330 335
e 330 336
e 330 337
e 330 338
e 330 339
e 330 340
e 341 342
e 341 343
e 341 344
e 341 345
e 341 346
e 341 347
e 341 348
e 341 349
e 341 350
e 341 351
e 341 352
e 341 353
e 341 354
e 341 355
e 341 356
e 341 357
e 341 358
e 341 359
e 341 360
e 341 361
e 362 363
e 362 364
e 362 365
e 362 366
e 362 367
e 362 368
e 362 369
e 362 370
e 362 371
e 362 372
e 362 373
e 362 374
e 362 375
e 376 377
e 376 378
e 376 379
e 376 380
e 376 381
e 376 382
e 376 383
e 376 384
e 376 385
e 376 386
e 376 387
e 376 388
e 376 389
e 376 390
e 376 391
e 392 393
e 392 394
e 392 395
e 392 396
e 392 397
e 392 398
e 392 399
e 392 400
e 392 401
e 392 402
e 392 403
e 392 404
e 392 405
e 392 406
e 392 407
e 392 408
e 392 409
e 392 410
e 392 411
e 412 413
e 412 414
e 412 415
e 412 416
e 412 417
e 412 418
e 412 419
e 412 420
e 412 421
e 412 422
e 412 423
e 412 424
e 412 425
e 426 427
e 426 428
e 426 429
e 426 430
e 426 431
e 426 432
e 426 433
e 426 434
e 426 435
e 426 436
e 426 437
e 426 438
e 426 439
e 426 440
e 426 441
e 426 442
e 426 443
e 444 445
e 444 446
e 444 447
e 444 448
e 444 449
e 444 450
e 444 451
e 444 452
e 444 453
e 444 454
e 444 455
e 444 456
e 444 457
e 444 458
e 444 459
e 444 460
e 444 461
e 444 462
e 444 463
e 444 464
e 465 466
e 465 467
e 465 468
e 465 469
e 465 470
e 465 471
e 465 472
e 465 473
e 465 474
e 465 475
e 465 476
e 465 477
e 478 479
e 478 480
e 478 481
e 478 482
e 478 483
e 478 484
e 478 485
e 478 486
e 478 487
e 478 488
e 478 489
e 478 490
e 478 491
e 478 492
e 478 493
e 478 494
e 478 495
e 496 497
e 496 498
e 496 499
e 496 500
e 496 501
e 496 502
e 496 503
e 496 504
e 496 505
e 496 506
e 496 507
e 496 508
e 496 509
e 496 510
e 496 511
e 496 512
e 496 513
e 496 514
e 515 516
e 515 517
e 515 518
e 515 519
e 515 520
e 515 521
e 515 522
e 515 523
e 515 524
e 515 525
e 515 526
e 515 527
e 515 528
e 515 529
e 515 530
e 515 531
e 515 532
e 515 533
e 534 535
e 534 536
e 534 537
e 534 538
e 534 539
e 534 540
e 534 541
e 534 542
e 534 543
e 534 544
e 534 545
e 534 546
e 534 547
e 534 548
e 549 550
e 549 551
e 549 552
e 549 553
e 549 554
e 549 555
e 549 556
e 549 557
e 549 558
e 549 559
e 549 560
e 549 561
e 549 562
e 549 563
e 549 564
e 549 565
e 549 566
e 549 567
e 568 569
e 568 570
e 568 571
e 568 572
e 568 573
e 568 574
e 568 575
e 568 576
e 568 577
e 568 578
e 568 579
e 568 580
e 568 581
e 568 582
e 568 583
e 568 584
e 568 585
e 568 586
e 568 587
e 568 588
e 589 590
e 589 591
e 589 592
e 589 593
e 589 594
e 589 595
e 589 596
e 589 597
e 589 598
e 589 599
e 589 600
e 589 601
e 589 602
e 589 603
e 589 604
e 605 606
e 605 607
e 605 608
e 605 609
e 605 610
e 605 611
e 605 612
e 605 613
e 605 614
e 605 615
e 605 616
e 605 617
e 605 618
e 605 619
e 605 620
e 621 622
e 621 623
e 621 624
e 621 625
e 621 626
e 621 627
e 621 628
e 621 629
e 621 630
e 621 631
e 621 632
e 621 633
e 621 634
e 621 635
e 636 637
e 636 638
e 636 639
e 636 640
e 636 641
e 636 642
e 636 643
e 636 644
e 636 645
e 636 646
e 636 647
e 636 648
e 636 649
e 636 650
e 636 651
e 636 652
e 636 653
e 654 655
e 654 656
e 654 657
e 654 658
e 654 659
e 654 660
e 654 661
e 654 662
e 654 663
e 654 664
e 654 665
e 654 666
e 654 667
e 654 668
e 654 669
e 654 670
e 654 671
e 654 672
e 654 673
e 674 675
e 674 676
e 674 677
e 674 678
e 674 679
e 674 680
e 674 681
e 674 682
e 674 683
e 674 684
e 674 685
e 674 686
e 674 687
e 674 688
e 674 689
e 674 690
e 691 692
e 691 693
e 691 694
e 691 695
e 691 696
e 691 697
e 691 698
e 691 699
e 691 700
e 691 701
e 691 702
e 691 703
e 691 704
e 691 705
e 691 706
e 691 707
e 691 708
e 691 709
e 691 710
e 711 712
e 711 713
e 711 714
e 711 715
e 711 716
e 711 717
e 711 718
e 711 719
e 711 720
e 711 721
e 722 723
e 722 724
e 722 725
e 722 726
e 722 727
e 722 728
e 722 729
e 722 730
e 722 731
e 722 732
e 722 733
e 722 734
e 722 735
e 722 736
e 722 737
e 722 738
e 722 739
e 722 740
e 722 741
e 742 743
e 742 744
e 742 745
e 742 746
e 742 747
e 742 748
e 742 749
e 742 750
e 742 751
e 742 752
e 742 753
e 754 755
e 754 756
e 754 757
e 754 758
e 754 759
e 754 760
e 754 761
e 754 762
e 754 763
e 754 764
e 754 765
e 754 766
e 754 767
e 754 768
e 754 769
e 754 770
e 754 771
e 772 773
e 772 774
e 772 775
e 772 776
e 772 777
e 772 778
e 772 779
e 772 780
e 772 781
e 772 782
e 772 783
e 772 784
e 772 785
e 772 786
e 772 787
e 788 789
e 788 790
e 788 791
e 788 792
e 788 793
e 788 794
e 788 795
e 788 796
e 788 797
e 788 798
e 788 799
e 788 800
e 788 801
e 788 802
e 788 803
e 788 804
e 788 805
e 788 806
e 788 807
e 788 808
e 809 810
e 809 811
e 809 812
e 809 813
e 809 814
e 809 815
e 809 816
e 809 817
e 809 818
e 809 819
e 809 820
e 809 821
e 809 822
e 809 823
e 809 824
e 809 825
e 809 826
e 809 827
e 828 829
e 828 830
e 828 831
e 828 832
e 828 833
e 828 834
e 828 835
e 828 836
e 828 837
e 828 838
e 828 839
e 828 840
e 828 841
e 828 842
e 828 843
e 828 844
e 828 845
e 828 846
e 828 847
e 828 848
e 849 850
e 849 851
e 849 852
e 849 853
e 849 854
e 849 855
e 849 856
e 849 857
e 849 858
e 849 859
e 849 860
e 849 861
e 849 862
e 849 863
e 849 864
e 849 865
e 849 866
e 849 867
e 868 869
e 868 870
e 868 871
e 868 872
e 868 873
e 868 874
e 868 875
e 868 876
e 868 877
e 868 878
e 868 879
e 868 880
e 868 881
e 868 882
e 868 883
e 868 884
e 868 885
e 868 886
e 887 888
e 887 889
e 887 890
e 887 891
e 887 892
e 887 893
e 887 894
e 887 895
e 887 896
e 887 897
e 887 898
e 887 899
e 900 901
e 900 902
e 900 903
e 900 904
e 900 905
e 900 906
e 900 907
e 900 908
e 900 909
e 900 910
e 911 912
e 911 913
e 911 914
e 911 915
e 911 916
e 911 917
e 911 918
e 911 919
e 911 920
e 911 921
e 922 923
e 922 924
e 922 925
e 922 926
e 922 927
e 922 928
e 922 929
e 922 930
e 922 931
e 922 932
e 922 933
e 922 934
e 935 936
e 935 937
e 935 938
e 935 939
e 935 940
e 935 941
e 935 942
e 935 943
e 935 944
e 935 945
e 935 946
e 935 947
e 935 948
e 935 949
e 935 950
e 935 951
e 935 952
e 935 953
e 954 955
e 954 956
e 954 957
e 954 958
e 954 959
e 954 960
e 954 961
e 954 962
e 954 963
e 954 964
e 954 965
e 954 966
e 954 967
e 954 968
e 969 970
e 969 971
e 969 972
e 969 973
e 969 974
e 969 975
e 969 976
e 969 977
e 969 978
e 969 979
e 969 980
e 969 981
e 969 982
e 969 983
e 969 984
e 969 985
e 969 986
e 969 987
e 969 988
e 969 989
e 990 991
e 990 992
e 990 993
e 990 994
e 990 995
e 990 996
e 990 997
e 990 998
e 990 999
e 990 1000
e 990 1001
e 990 1002
e 990 1003
e 1004 1005
e 1004 1006
e 1004 1007
e 1004 1008
e 1004 1009
e 1004 1010
e 1004 1011
e 1004 1012
e 1004 1013
e 1004 1014
e 1004 1015
e 1004 1016
e 1004 1017
e 1004 1018
e 1004 1019
e 1020 1021
e 1020 1022
e 1020 1023
e 1020 1024
e 1020 1025
e 1020 1026
e 1020 1027
e 1020 1028
e 1020 1029
e 1020 1030
e 1020 1031
e 1020 1032
e 1020 1033
e 1020 1034
e 1020 1035
e 1020 1036
e 1020 1037
e 1020 1038
e 1039 1040
e 1039 1041
e 1039 1042
e 1039 1043
e 1039 1044
e 1039 1045
e 1039 1046
e 1039 1047
e 1039 1048
e 1039 1049
e 1039 1050
e 1039 1051
e 1039 1052
e 1039 1053
e 1039 1054
e 1039 1055
e 1039 1056
e 1039 1057
e 1039 1058
e 1039 1059
e 1060 1061
e 1060 1062
e 1060 1063
e 1060 1064
e 1060 1065
e 1060 1066
e 1060 1067
e 1060 1068
e 1060 1069
e 1060 1070
e 1060 1071
e 1060 1072
e 1060 1073
e 1060 1074
e 1075 1076
e 1075 1077
e 1075 1078
e 1075 1079
e 1075 1080
e 1075 1081
e 1075 1082
e 1075 1083
e 1075 1084
e 1075 1085
e 1075 1086
e 1075 1087
e 1075 1088
e 1089 1090
e 1089 1091
e 1089 1092
e 1089 1093
e 1089 1094
e 1089 1095
e 1089 1096
e 1089 1097
e 1089 1098
e 1089 1099
e 1089 1100
e 1089 1101
e 1089 1102
e 1089 1103
e 1089 1104
e 1105 1106
e 1105 1107
e 1105 1108
e 1105 1109
e 1105 1110
e 1105 1111
e 1105 1112
e 1105 1113
e 1105 1114
e 1105 1115
e 1105 1116
e 1105 1117
e 1105 1118
e 1105 1119
e 1105 1120
e 1121 1122
e 1121 1123
e 1121 1124
e 1121 1125
e 1121 1126
e 1121 1127
e 1121 1128
e 1121 1129
e 1121 1130
e 1121 1131
e 1121 1132
e 1121 1133
e 1121 1134
e 1121 1135
e 1121 1136
e 1121 1137
e 1121 1138
e 1121 1139
e 1121 1140
e 1121 1141
e 1142 1143
e 1142 1144
e 1142 1145
e 1142 1146
e 1142 1147
e 1142 1148
e 1142 1149
e 1142 1150
e 1142 1151
e 1142 1152
e 1142 1153
e 1142 1154
e 1142 1155
e 1142 1156
e 1142 1157
e 1142 1158
e 1142 1159
e 1160 1161
e 1160 1162
e 1160 1163
e 1160 1164
e 1160 1165
e 1160 1166
e 1160 1167
e 1160 1168
e 1160 1169
e 1160 1170
e 1160 1171
e 1160 1172
e 1160 1173
e 1160 1174
e 1160 1175
e 1176 1177
e 1176 1178
e 1176 1179
e 1176 1180
e 1176 1181
e 1176 1182
e 1176 1183
e 1176 1184
e 1176 1185
e 1176 1186
e 1176 1187
e 1176 1188
e 1176 1189
e 1176 1190
e 1176 1191
e 1176 1192
e 1176 1193
e 1194 1195
e 1194 1196
e 1194 1197
e 1194 1198
e 1194 1199
e 1194 1200
e 1194 1201
e 1194 1202
e 1194 1203
e 1194 1204
e 1194 1205
e 1194 1206
e 1194 1207
e 1194 1208
e 1194 1209
e 1194 1210
e 1194 1211
e 1194 1212
e 1213 1214
e 1213 1215
e 1213 1216
e 1213 1217
e 1213 1218
e 1213 1219
e 1213 1220
e 1213 1221
e 1213 1222
e 1213 1223
e 1213 1224
e 1213 1225
e 1213 1226
e 1213 1227
e 1228 1229
e 1228 1230
e 1228 1231
e 1228 1232
e 1228 1233
e 1228 1234
e 1228 1235
e 1228 1236
e 1228 1237
e 1228 1238
e 1228 1239
e 1228 1240
e 1228 1241
e 1228 1242
e 1228 1243
e 1244 1245
e 1244 1246
e 1244 1247
e 1244 1248
e 1244 1249
e 1244 1250
e 1244 1251
e 1244 1252
e 1244 1253
e 1244 1254
e 1244 1255
e 1244 1256
e 1244 1257
e 1244 1258
e 1244 1259
e 1244 1260
e 1244 1261
e 1244 1262
e 1244 1263
e 1264 1265
e 1264 1266
e 1264 1267
e 1264 1268
e 1264 1269
e 1264 1270
e 1264 1271
e 1264 1272
e 1264 1273
e 1264 1274
e 1264 1275
e 1264 1276
e 1264 1277
e 1264 1278
e 1264 1279
e 1264 1280
e 1264 1281
e 1282 1283
e 1282 1284
e 1282 1285
e 1282 1286
e 1282 1287
e 1282 1288
e 1282 1289
e 1282 1290
e 1282 1291
e 1282 1292
e 1282 1293
e 1282 1294
e 1282 1295
e 1296 1297
e 1296 1298
e 1296 1299
e 1296 1300
e 1296 1301
e 1296 1302
e 1296 1303
e 1296 1304
e 1296 1305
e 1296 1306
e 1296 1307
e 1296 1308
e 1296 1309
e 1310 1311
e 1310 1312
e 1310 1313
e 1310 1314
e 1310 1315
e 1310 1316
e 1310 1317
e 1310 1318
e 1310 1319
e 1310 1320
e 1321 1322
e 1321 1323
e 1321 1324
e 1321 1325
e 1321 1326
e 1321 1327
e 1321 1328
e 1321 1329
e 1321 1330
e 1321 1331
e 1321 1332
e 1321 1333
e 1334 1335
e 1334 1336
e 1334 1337
e 1334 1338
e 1334 1339
e 1334 1340
e 1334 1341
e 1334 1342
e 1334 1343
e 1334 1344
e 1334 1345
e 1334 1346
e 1334 1347
e 1334 1348
e 1334 1349
e 1334 1350
e 1334 1351
e 1352 1353
e 1352 1354
e 1352 1355
e 1352 1356
e 1352 1357
e 1352 1358
e 1352 1359
e 1352 1360
e 1352 1361
e 1352 1362
e 1352 1363
e 1352 1364
e 1352 1365
e 1352 1366
e 1352 1367
e 1352 1368
e 1352 1369
e 1370 1371
e 1370 1372
e 1370 1373
e 1370 1374
e 1370 1375
e 1370 1376
e 1370 1377
e 1370 1378
e 1370 1379
e 1370 1380
e 1370 1381
e 1370 1382
e 1370 1383
e 1370 1384
e 1385 1386
e 1385 1387
e 1385 1388
e 1385 1389
e 1385 1390
e 1385 1391
e 1385 1392
e 1385 1393
e 1385 1394
e 1385 1395
e 1385 1396
e 1385 1397
e 1385 1398
e 1385 1399
e 1385 1400
e 1385 1401
e 1385 1402
e 1385 1403
e 1404 1405
e 1404 1406
e 1404 1407
e 1404 1408
e 1404 1409
e 1404 1410
e 1404 1411
e 1404 1412
e 1404 1413
e 1404 1414
e 1404 1415
e 1404 1416
e 1404 1417
e 1404 1418
e 1404 1419
e 1404 1420
e 1421 1422
e 1421 1423
e 1421 1424
e 1421 1425
e 1421 1426
e 1421 1427
e 1421 1428
e 1421 1429
e 1421 1430
e 1421 1431
e 1421 1432
e 1421 1433
e 1421 1434
e 1421 1435
e 1421 1436
e 1421 1437
e 1438 1439
e 1438 1440
e 1438 1441
e 1438 1442
e 1438 1443
e 1438 1444
e 1438 1445
e 1438 1446
e 1438 1447
e 1438 1448
e 1438 1449
e 1438 1450
e 1438 1451
e 1438 1452
e 1438 1453
e 1438 1454
e 1438 1455
e 1456 1457
e 1456 1458
e 1456 1459
e 1456 1460
e 1456 1461
e 1456 1462
e 1456 1463
e 1456 1464
e 1456 1465
e 1456 1466
e 1467 1468
e 1467 1469
e 1467 1470
e 1467 1471
e 1467 1472
e 1467 1473
e 1467 1474
e 1467 1475
e 1467 1476
e 1467 1477
e 1478 1479
e 1478 1480
e 1478 1481
e 1478 1482
e 1478 1483
e 1478 1484
e 1478 1485
e 1478 1486
e 1478 1487
e 1478 1488
e 1478 1489
e 1478 1490
e 1478 1491
e 1478 1492
e 1478 1493
e 1478 1494
e 1478 1495
e 1478 1496
e 1497 1498
e 1497 1499
e 1497 1500
e 1497 1501
e 1497 1502
e 1497 1503
e 1497 1504
e 1497 1505
e 1497 1506
e 1497 1507
e 1497 1508
e 1497 1509
e 1497 1510
e 1497 1511
e 1497 1512
e 1497 1513
e 1497 1514
e 1497 1515
e 1516 1517
e 1516 1518
e 1516 1519
e 1516 1520
e 1516 1521
e 1516 1522
e 1516 1523
e 1516 1524
e 1516 1525
e 1516 1526
e 1516 1527
e 1516 1528
e 1516 1529
e 1516 1530
e 1516 1531
e 1516 1532
e 1533 1534
e 1533 1535
e 1533 1536
e 1533 1537
e 1533 1538
e 1533 1539
e 1533 1540
e 1533 1541
e 1533 1542
e 1533 1543
e 1533 1544
e 1533 1545
e 1533 1546
e 1533 1547
e 1533 1548
e 1533 1549
e 1533 1550
e 1533 1551
e 1552 1553
e 1552 1554
e 1552 1555
e 1552 1556
e 1552 1557
e 1552 1558
e 1552 1559
e 1552 1560
e 1552 1561
e 1552 1562
e 1552 1563
e 1552 1564
e 1565 1566
e 1565 1567
e 1565 1568
e 1565 1569
e 1565 1570
e 1565 1571
e 1565 1572
e 1565 1573
e 1565 1574
e 1565 1575
e 1576 1577
e 1576 1578
e 1576 1579
e 1576 1580
e 1576 1581
e 1576 1582
e 1576 1583
e 1576 1584
e 1576 1585
e 1576 1586
e 1576 1587
e 1588 1589
e 1588 1590
e 1588 1591
e 1588 1592
e 1588 1593
e 1588 1594
e 1588 1595
e 1588 1596
e 1588 1597
e 1588 1598
e 1588 1599
e 1588 1600
e 1588 1601
e 1588 1602
e 1588 1603
e 1588 1604
e 1588 1605
e 1606 1607
e 1606 1608
e 1606 1609
e 1606 1610
e 1606 1611
e 1606 1612
e 1606 1613
e 1606 1614
e 1606 1615
e 1606 1616
e 1606 1617
e 1606 1618
e 1606 1619
e 1606 1620
e 1606 1621
e 1606 1622
e 1623 1624
e 1623 1625
e 1623 1626
e 1623 1627
e 1623 1628
e 1623 1629
e 1623 1630
e 1623 1631
e 1623 1632
e 1623 1633
e 1623 1634
e 1623 1635
e 1623 1636
e 1623 1637
e 1623 1638
e 1623 1639
e 1623 1640
e 1623 1641
e 1623 1642
e 1623 1643
e 1644 1645
e 1644 1646
e 1644 1647
e 1644 1648
e 1644 1649
e 1644 1650
e 1644 1651
e 1644 1652
e 1644 1653
e 1644 1654
e 1644 1655
e 1644 1656
e 1644 1657
e 1644 1658
e 1644 1659
e 1644 1660
